p cnf 439
-5 -41
-6 -47
-7 -50
-8 -53
-9 -56
-10 -59
-11 -62
-12 -65
-13 -68
-14 -71
-15 -74
-16 -77
-17 -80
-18 -83
-19 -86
-20 -89
-21 -92
-22 -95
-23 -99
-24 -103
-25 -107
-26 -111
-27 -115
-28 -119
-29 -123
-30 -127
-31 -131
-32 -135
-33 -139
-34 -143
-35 -147
-36 -151
-37 -155
-38 -3
-38 4
3 -4 38
-39 1
-39 38
-1 -38 39
-40 5
-40 -38
-5 38 40
-41 -39
-41 -40
39 40 41
-42 1
-42 -5
-1 5 42
-43 38
-43 42
-38 -42 43
-44 21
-44 43
-21 -43 44
-45 6
-45 -43
-6 43 45
-46 -44
-46 -45
44 45 46
-47 4
-47 46
-4 -46 47
-48 6
-48 43
-6 -43 48
-49 7
-49 -43
-7 43 49
-50 -48
-50 -49
48 49 50
-51 7
-51 43
-7 -43 51
-52 8
-52 -43
-8 43 52
-53 -51
-53 -52
51 52 53
-54 8
-54 43
-8 -43 54
-55 9
-55 -43
-9 43 55
-56 -54
-56 -55
54 55 56
-57 9
-57 43
-9 -43 57
-58 10
-58 -43
-10 43 58
-59 -57
-59 -58
57 58 59
-60 10
-60 43
-10 -43 60
-61 11
-61 -43
-11 43 61
-62 -60
-62 -61
60 61 62
-63 11
-63 43
-11 -43 63
-64 12
-64 -43
-12 43 64
-65 -63
-65 -64
63 64 65
-66 12
-66 43
-12 -43 66
-67 13
-67 -43
-13 43 67
-68 -66
-68 -67
66 67 68
-69 13
-69 43
-13 -43 69
-70 14
-70 -43
-14 43 70
-71 -69
-71 -70
69 70 71
-72 14
-72 43
-14 -43 72
-73 15
-73 -43
-15 43 73
-74 -72
-74 -73
72 73 74
-75 15
-75 43
-15 -43 75
-76 16
-76 -43
-16 43 76
-77 -75
-77 -76
75 76 77
-78 16
-78 43
-16 -43 78
-79 17
-79 -43
-17 43 79
-80 -78
-80 -79
78 79 80
-81 17
-81 43
-17 -43 81
-82 18
-82 -43
-18 43 82
-83 -81
-83 -82
81 82 83
-84 18
-84 43
-18 -43 84
-85 19
-85 -43
-19 43 85
-86 -84
-86 -85
84 85 86
-87 19
-87 43
-19 -43 87
-88 20
-88 -43
-20 43 88
-89 -87
-89 -88
87 88 89
-90 20
-90 43
-20 -43 90
-91 21
-91 -43
-21 43 91
-92 -90
-92 -91
90 91 92
-93 2
-93 48
-2 -48 93
-94 22
-94 -48
-22 48 94
-95 -93
-95 -94
93 94 95
-96 23
-96 -48
-23 48 96
-97 2
-97 51
-2 -51 97
-98 -51
-98 96
51 -96 98
-99 -97
-99 -98
97 98 99
-100 24
-100 -48
-24 48 100
-101 2
-101 54
-2 -54 101
-102 -54
-102 100
54 -100 102
-103 -101
-103 -102
101 102 103
-104 25
-104 -48
-25 48 104
-105 2
-105 57
-2 -57 105
-106 -57
-106 104
57 -104 106
-107 -105
-107 -106
105 106 107
-108 26
-108 -48
-26 48 108
-109 2
-109 60
-2 -60 109
-110 -60
-110 108
60 -108 110
-111 -109
-111 -110
109 110 111
-112 27
-112 -48
-27 48 112
-113 2
-113 63
-2 -63 113
-114 -63
-114 112
63 -112 114
-115 -113
-115 -114
113 114 115
-116 28
-116 -48
-28 48 116
-117 2
-117 66
-2 -66 117
-118 -66
-118 116
66 -116 118
-119 -117
-119 -118
117 118 119
-120 29
-120 -48
-29 48 120
-121 2
-121 69
-2 -69 121
-122 -69
-122 120
69 -120 122
-123 -121
-123 -122
121 122 123
-124 30
-124 -48
-30 48 124
-125 2
-125 72
-2 -72 125
-126 -72
-126 124
72 -124 126
-127 -125
-127 -126
125 126 127
-128 31
-128 -48
-31 48 128
-129 2
-129 75
-2 -75 129
-130 -75
-130 128
75 -128 130
-131 -129
-131 -130
129 130 131
-132 32
-132 -48
-32 48 132
-133 2
-133 78
-2 -78 133
-134 -78
-134 132
78 -132 134
-135 -133
-135 -134
133 134 135
-136 33
-136 -48
-33 48 136
-137 2
-137 81
-2 -81 137
-138 -81
-138 136
81 -136 138
-139 -137
-139 -138
137 138 139
-140 34
-140 -48
-34 48 140
-141 2
-141 84
-2 -84 141
-142 -84
-142 140
84 -140 142
-143 -141
-143 -142
141 142 143
-144 35
-144 -48
-35 48 144
-145 2
-145 87
-2 -87 145
-146 -87
-146 144
87 -144 146
-147 -145
-147 -146
145 146 147
-148 36
-148 -48
-36 48 148
-149 2
-149 90
-2 -90 149
-150 -90
-150 148
90 -148 150
-151 -149
-151 -150
149 150 151
-152 37
-152 -48
-37 48 152
-153 2
-153 44
-2 -44 153
-154 -44
-154 152
44 -152 154
-155 -153
-155 -154
153 154 155
-156 6
-156 38
-6 -38 156
-157 22
-157 -23
-22 23 157
-158 24
-158 -25
-24 25 158
-159 26
-159 27
-26 -27 159
-160 -28
-160 29
28 -29 160
-161 30
-161 31
-30 -31 161
-162 32
-162 33
-32 -33 162
-163 34
-163 -35
-34 35 163
-164 -36
-164 -37
36 37 164
-165 157
-165 158
-157 -158 165
-166 159
-166 160
-159 -160 166
-167 161
-167 162
-161 -162 167
-168 163
-168 164
-163 -164 168
-169 165
-169 166
-165 -166 169
-170 167
-170 168
-167 -168 170
-171 169
-171 170
-169 -170 171
-172 156
-172 171
-156 -171 172
172
